2 100 944
5 2 4 8 8 2 3 3 4 2
3 4
5 5 4
8 6 1 1
0 40.0 50.0 0.0 0.0 0 1236
2 45.0 68.0 90.0 10.0 0 1127 95 0 0 0 0 0 1 0 0 0 0
3 45.0 70.0 90.0 30.0 0 1125 5 0 0 1 1 0 0 0 0 0 1
4 42.0 66.0 90.0 10.0 0 1129 92 0 0 0 0 0 1 0 0 1 0
5 42.0 68.0 90.0 10.0 727 782 69 1 1 0 0 0 0 0 0 1 0
6 42.0 65.0 90.0 10.0 0 1130 46 1 0 0 1 0 0 0 1 0 0
7 40.0 69.0 90.0 20.0 0 1127 53 0 0 0 0 0 0 0 0 0 1
8 40.0 66.0 90.0 20.0 0 1130 99 0 0 0 0 0 1 0 0 0 0
9 38.0 68.0 90.0 20.0 255 324 54 0 0 0 0 0 1 0 0 0 0
10 38.0 70.0 90.0 10.0 534 605 95 0 0 0 0 0 0 1 0 0 0
11 35.0 66.0 90.0 10.0 0 1129 72 0 0 0 0 1 0 0 1 0 0
12 35.0 69.0 90.0 10.0 448 505 14 0 0 1 0 0 0 1 0 0 1
13 25.0 85.0 90.0 20.0 0 1107 13 0 0 0 0 0 0 1 0 0 0
14 22.0 75.0 90.0 30.0 30 92 51 1 0 0 0 0 0 0 1 0 0
15 22.0 85.0 90.0 10.0 0 1106 29 1 0 0 0 0 0 0 0 0 0
16 20.0 80.0 90.0 40.0 384 429 70 1 1 0 0 1 0 1 0 0 0
17 20.0 85.0 90.0 40.0 0 1105 44 0 0 0 0 1 0 0 0 0 0
18 18.0 75.0 90.0 20.0 0 1112 49 0 0 0 0 0 1 0 0 0 0
19 15.0 75.0 90.0 20.0 0 1110 45 1 0 1 0 0 0 1 0 0 0
20 15.0 80.0 90.0 10.0 0 1106 3 0 0 0 1 0 0 0 0 0 0
21 30.0 50.0 90.0 10.0 0 1136 9 1 0 0 0 0 0 0 0 0 1
22 30.0 52.0 90.0 20.0 0 1135 80 0 1 0 0 1 0 0 0 0 0
23 28.0 52.0 90.0 20.0 0 1133 37 0 1 0 0 0 1 0 0 1 0
24 28.0 55.0 90.0 10.0 732 777 14 0 1 0 0 0 0 0 0 1 0
25 25.0 50.0 90.0 10.0 0 1131 26 0 0 1 0 0 0 0 1 0 0
26 25.0 52.0 90.0 40.0 169 224 57 1 0 0 0 0 0 0 0 0 1
27 25.0 55.0 90.0 10.0 0 1130 25 0 0 0 0 1 0 0 0 0 0
28 23.0 52.0 90.0 10.0 0 1128 27 1 1 0 0 0 0 0 0 0 0
29 23.0 55.0 90.0 20.0 0 1128 68 0 0 0 0 0 1 0 0 0 0
30 20.0 50.0 90.0 10.0 0 1126 59 0 0 0 1 0 0 0 0 0 0
31 20.0 55.0 90.0 10.0 0 1125 74 1 0 0 1 0 0 1 0 0 0
32 10.0 35.0 90.0 20.0 0 1112 95 0 0 0 0 1 0 0 0 0 0
33 10.0 40.0 90.0 30.0 0 1114 79 0 0 0 0 1 0 0 0 0 0
34 8.0 40.0 90.0 40.0 0 1112 11 0 0 0 1 1 0 0 0 0 0
35 8.0 45.0 90.0 20.0 0 1113 61 0 0 0 0 0 0 1 0 0 0
36 5.0 35.0 90.0 10.0 0 1107 59 0 0 0 1 1 0 0 0 0 0
37 5.0 45.0 90.0 10.0 0 1110 65 0 0 0 0 0 0 0 0 0 1
38 2.0 40.0 90.0 20.0 0 1106 7 0 0 1 0 1 0 0 1 1 1
39 0.0 40.0 90.0 30.0 479 522 74 0 0 1 0 0 0 0 0 0 1
40 0.0 45.0 90.0 20.0 0 1105 0 1 1 1 0 0 0 0 0 0 0
41 35.0 30.0 90.0 10.0 0 1125 36 0 0 1 0 0 0 0 0 0 1
42 35.0 32.0 90.0 10.0 0 1127 39 0 0 0 0 0 0 1 0 0 0
43 33.0 32.0 90.0 20.0 0 1126 8 0 0 0 0 0 1 0 0 0 0
44 33.0 35.0 90.0 10.0 0 1129 50 1 0 0 0 0 0 0 0 0 0
45 32.0 30.0 90.0 10.0 359 412 78 0 0 1 1 0 0 0 0 0 0
46 30.0 30.0 90.0 10.0 0 1123 10 1 0 0 0 1 0 0 1 0 1
47 30.0 32.0 90.0 30.0 0 1125 50 0 0 0 1 0 0 0 1 0 0
48 30.0 35.0 90.0 10.0 0 1127 71 0 0 0 0 0 1 0 0 0 0
49 28.0 30.0 90.0 10.0 0 1122 92 0 0 0 0 1 0 0 1 1 0
50 28.0 35.0 90.0 10.0 0 1126 75 0 0 0 1 1 0 0 0 0 0
51 26.0 32.0 90.0 10.0 0 1123 19 0 0 0 0 0 1 0 0 0 0
52 25.0 30.0 90.0 10.0 0 1121 16 1 1 0 0 1 0 0 0 0 0
53 25.0 35.0 90.0 10.0 0 1124 75 0 0 0 0 0 0 0 0 1 0
54 44.0 5.0 90.0 20.0 286 347 88 0 0 0 0 0 1 0 0 0 1
55 42.0 10.0 90.0 40.0 0 1105 79 0 0 0 0 1 1 0 0 0 0
56 42.0 15.0 90.0 10.0 95 158 79 0 1 0 1 0 1 0 0 0 0
57 40.0 5.0 90.0 30.0 0 1101 55 0 0 1 0 1 0 1 0 0 0
58 40.0 15.0 90.0 40.0 0 1111 60 0 0 0 0 0 1 0 0 0 0
59 38.0 5.0 90.0 30.0 471 534 59 1 0 0 0 0 0 0 0 0 0
60 38.0 15.0 90.0 10.0 0 1110 29 0 0 0 0 0 1 0 0 0 0
61 35.0 5.0 90.0 20.0 0 1100 93 0 1 1 0 0 0 0 1 1 1
62 50.0 30.0 90.0 10.0 0 1123 37 0 0 0 0 1 0 0 0 0 0
63 50.0 35.0 90.0 20.0 262 317 16 0 1 0 0 0 0 0 0 1 0
64 50.0 40.0 90.0 50.0 0 1131 57 0 0 0 0 0 0 0 1 0 0
65 48.0 30.0 90.0 10.0 0 1124 93 0 0 1 0 1 0 0 1 0 0
66 48.0 40.0 90.0 10.0 0 1133 57 0 0 0 0 0 1 0 0 0 0
67 47.0 35.0 90.0 10.0 0 1129 7 0 0 0 0 0 0 1 1 0 0
68 47.0 40.0 90.0 10.0 12 77 43 0 0 0 0 0 1 0 1 0 0
69 45.0 30.0 90.0 10.0 0 1125 85 0 0 0 0 1 0 0 1 0 0
70 45.0 35.0 90.0 10.0 916 969 50 0 0 0 0 1 0 0 0 0 0
71 95.0 30.0 90.0 30.0 0 1087 8 0 0 0 1 0 0 0 0 1 0
72 95.0 35.0 90.0 20.0 0 1088 26 0 0 0 0 0 0 0 0 0 1
73 53.0 30.0 90.0 10.0 0 1122 42 0 0 0 1 0 1 0 0 1 0
74 92.0 30.0 90.0 10.0 0 1090 70 0 0 0 1 1 0 1 0 0 0
75 53.0 35.0 90.0 50.0 353 412 97 0 0 0 1 0 0 1 0 1 0
76 45.0 65.0 90.0 20.0 0 1130 15 0 0 0 1 0 0 0 0 1 0
77 90.0 35.0 90.0 10.0 203 260 65 0 0 0 0 0 0 1 0 1 0
78 88.0 30.0 90.0 10.0 574 643 80 1 0 0 0 0 0 0 0 0 0
79 88.0 35.0 90.0 20.0 0 1095 82 0 0 1 0 1 0 0 0 0 0
80 87.0 30.0 90.0 10.0 668 731 18 0 1 0 0 0 0 0 1 0 0
81 85.0 25.0 90.0 10.0 0 1094 81 1 0 0 1 0 1 1 1 0 0
82 85.0 35.0 90.0 30.0 0 1098 25 0 0 0 0 0 1 0 0 0 0
83 75.0 55.0 90.0 20.0 0 1110 99 0 0 0 0 0 0 0 1 0 0
84 72.0 55.0 90.0 10.0 0 1113 28 1 0 0 0 0 0 0 1 0 0
85 70.0 58.0 90.0 20.0 458 523 59 0 0 0 0 0 0 0 0 0 1
86 68.0 60.0 90.0 30.0 0 1116 39 0 0 1 0 0 0 0 0 0 0
87 66.0 55.0 90.0 10.0 0 1119 21 0 0 0 0 1 0 0 0 0 0
88 65.0 55.0 90.0 20.0 85 144 72 0 0 0 0 0 0 1 1 0 0
89 65.0 60.0 90.0 30.0 0 1119 7 1 1 0 0 0 0 0 0 1 0
90 63.0 58.0 90.0 10.0 0 1121 48 1 0 0 0 0 0 0 0 1 0
91 60.0 55.0 90.0 10.0 0 1125 79 1 0 0 0 0 0 0 0 0 0
92 60.0 60.0 90.0 10.0 0 1123 84 1 0 1 0 0 0 0 0 0 1
93 67.0 85.0 90.0 20.0 368 441 95 0 0 0 0 0 1 0 0 0 0
94 65.0 85.0 90.0 40.0 0 1102 36 1 0 0 0 1 0 0 0 0 0
95 65.0 82.0 90.0 10.0 0 1105 62 0 0 0 0 0 1 0 0 0 0
96 62.0 80.0 90.0 30.0 0 1108 19 0 0 1 1 1 0 0 1 0 0
97 60.0 80.0 90.0 10.0 0 1109 42 0 0 0 0 0 1 0 0 0 0
98 60.0 85.0 90.0 30.0 0 1105 4 0 0 0 1 0 1 0 0 0 0
99 58.0 75.0 90.0 20.0 0 1115 49 0 1 0 0 1 0 0 0 1 0
100 55.0 80.0 90.0 10.0 743 820 24 0 0 0 0 0 0 0 0 1 0
101 55.0 85.0 90.0 20.0 647 726 71 0 0 1 0 0 0 0 1 0 1